solution status: optimal solution found
objective value:                                  1.5
C0001                                               1 	(obj:0)
C0119                                               1 	(obj:0)
C0188                                               1 	(obj:0)
C0254                                               1 	(obj:0)
C0320                                               1 	(obj:0)
C0387                                               1 	(obj:0)
C0536                                               1 	(obj:0)
C0645                                               1 	(obj:0)
C0715                                               1 	(obj:0)
C0785                                               1 	(obj:0)
C0855                                               1 	(obj:0)
C0925                                               1 	(obj:0)
C0995                                               1 	(obj:0)
C1065                                               1 	(obj:0)
C1135                                               1 	(obj:0)
C1205                                               1 	(obj:0)
C1275                                               1 	(obj:0)
C1324                                               1 	(obj:0)
C1394                                               1 	(obj:0)
C1464                                               1 	(obj:0)
C1535                                               1 	(obj:0)
C1605                                               1 	(obj:0)
C1675                                               1 	(obj:0)
C1745                                               1 	(obj:0)
C1815                                               1 	(obj:0)
C1885                                               1 	(obj:0)
C1955                                               1 	(obj:0)
C1986                                               1 	(obj:0)
C2075                                               1 	(obj:0)
C2145                                               1 	(obj:0)
C2215                                               1 	(obj:0)
C2285                                               1 	(obj:0)
C2355                                               1 	(obj:0)
C2425                                               1 	(obj:0)
C2495                                               1 	(obj:0)
C2565                                               1 	(obj:0)
C2638                                               1 	(obj:0)
C2726                                               1 	(obj:0)
C2790                                               1 	(obj:0)
C2857                                               1 	(obj:0)
C2923                                               1 	(obj:0)
C3216                                               1 	(obj:0)
C3288                                               1 	(obj:0)
C3359                                               1 	(obj:0)
C3430                                               1 	(obj:0)
C3690                                               1 	(obj:0)
C3761                                               1 	(obj:0)
C3832                                               1 	(obj:0)
C3903                                               1 	(obj:0)
C3974                                               1 	(obj:0)
C4045                                               1 	(obj:0)
C4116                                               1 	(obj:0)
C4187                                               1 	(obj:0)
C4258                                               1 	(obj:0)
C4329                                               1 	(obj:0)
C4433                                               1 	(obj:0)
C4565                                               1 	(obj:0)
C4640                                               1 	(obj:0)
C4713                                               1 	(obj:0)
C4768                                               1 	(obj:0)
C4843                                               1 	(obj:0)
C5187                                               1 	(obj:0)
C5257                                               1 	(obj:0)
C5444                                               1 	(obj:0)
C5636                                               1 	(obj:0)
C5761                                               1 	(obj:0)
C5823                                               1 	(obj:0)
C6019                                               1 	(obj:0)
C6031                                               1 	(obj:0.5)
C6033                                               1 	(obj:0.5)
C6036                                               1 	(obj:0.5)
